150
0 62 5 48 89 105 133 52 18 74 96 138 55 142 118 3 64 117 123 25 128 65 69 21 93 15 87 136 78 17 23 37 103 110 101 98 35 126 58 140 73 20 71 83 9 112 46 108 31 10 16 14 44 90 97 22 109 76 59 61 149 34 85 26 11 19 56 6 8 116 33 82 54 148 119 114 122 42 127 135 40 70 99 47 13 2 45 28 131 111 106 29 120 100 38 95 77 51 4 36 146 102 145 32 75 12 94 125 81 115 49 43 113 143 1 53 39 63 68 72 67 84 134 139 144 86 124 50 60 24 80 107 57 130 92 27 66 104 141 147 132 137 88 30 79 121 41 7 91 129 
